NAME : eil101_solution.tour
TYPE : TOUR
DIMENSION : 102
COMMENT : Tour length: 911.0381
COMMENT : Time elapsed: 375.34 [s]
TOUR_SECTION
0
68
26
93
94
72
21
40
56
86
1
39
20
71
73
74
55
3
54
53
11
79
67
75
49
50
19
65
64
70
34
33
77
78
28
23
24
38
66
22
14
84
60
16
44
45
35
48
63
10
18
59
98
4
7
46
47
81
17
51
87
61
62
31
89
6
82
83
85
15
95
88
30
9
69
29
8
80
32
2
76
27
100
52
25
57
12
96
91
58
92
97
36
99
41
42
13
37
43
90
5
0
-1
EOF
